c File: flat50_3_0.col
c
c SOURCE: Joseph Culberson (joe@cs.ualberta.ca)
c DESCRIPTION: Quasi-random coloring problem
c              generated with flatness = 0
c                             probability = 0.139
c                             known coloring = 3
c                             random seed = 1416
c              Creation Date:  Tue Jun  9 12:08:48 1998
c Maximum degree = 8 Minimum degree = 1
c p edge 50 115
c cnf created by edge2cnf
p cnf 150 545
-1 -2 0
-1 -3 0
-2 -3 0
1 2 3 0
-4 -5 0
-4 -6 0
-5 -6 0
4 5 6 0
-7 -8 0
-7 -9 0
-8 -9 0
7 8 9 0
-10 -11 0
-10 -12 0
-11 -12 0
10 11 12 0
-13 -14 0
-13 -15 0
-14 -15 0
13 14 15 0
-16 -17 0
-16 -18 0
-17 -18 0
16 17 18 0
-19 -20 0
-19 -21 0
-20 -21 0
19 20 21 0
-22 -23 0
-22 -24 0
-23 -24 0
22 23 24 0
-25 -26 0
-25 -27 0
-26 -27 0
25 26 27 0
-28 -29 0
-28 -30 0
-29 -30 0
28 29 30 0
-31 -32 0
-31 -33 0
-32 -33 0
31 32 33 0
-34 -35 0
-34 -36 0
-35 -36 0
34 35 36 0
-37 -38 0
-37 -39 0
-38 -39 0
37 38 39 0
-40 -41 0
-40 -42 0
-41 -42 0
40 41 42 0
-43 -44 0
-43 -45 0
-44 -45 0
43 44 45 0
-46 -47 0
-46 -48 0
-47 -48 0
46 47 48 0
-49 -50 0
-49 -51 0
-50 -51 0
49 50 51 0
-52 -53 0
-52 -54 0
-53 -54 0
52 53 54 0
-55 -56 0
-55 -57 0
-56 -57 0
55 56 57 0
-58 -59 0
-58 -60 0
-59 -60 0
58 59 60 0
-61 -62 0
-61 -63 0
-62 -63 0
61 62 63 0
-64 -65 0
-64 -66 0
-65 -66 0
64 65 66 0
-67 -68 0
-67 -69 0
-68 -69 0
67 68 69 0
-70 -71 0
-70 -72 0
-71 -72 0
70 71 72 0
-73 -74 0
-73 -75 0
-74 -75 0
73 74 75 0
-76 -77 0
-76 -78 0
-77 -78 0
76 77 78 0
-79 -80 0
-79 -81 0
-80 -81 0
79 80 81 0
-82 -83 0
-82 -84 0
-83 -84 0
82 83 84 0
-85 -86 0
-85 -87 0
-86 -87 0
85 86 87 0
-88 -89 0
-88 -90 0
-89 -90 0
88 89 90 0
-91 -92 0
-91 -93 0
-92 -93 0
91 92 93 0
-94 -95 0
-94 -96 0
-95 -96 0
94 95 96 0
-97 -98 0
-97 -99 0
-98 -99 0
97 98 99 0
-100 -101 0
-100 -102 0
-101 -102 0
100 101 102 0
-103 -104 0
-103 -105 0
-104 -105 0
103 104 105 0
-106 -107 0
-106 -108 0
-107 -108 0
106 107 108 0
-109 -110 0
-109 -111 0
-110 -111 0
109 110 111 0
-112 -113 0
-112 -114 0
-113 -114 0
112 113 114 0
-115 -116 0
-115 -117 0
-116 -117 0
115 116 117 0
-118 -119 0
-118 -120 0
-119 -120 0
118 119 120 0
-121 -122 0
-121 -123 0
-122 -123 0
121 122 123 0
-124 -125 0
-124 -126 0
-125 -126 0
124 125 126 0
-127 -128 0
-127 -129 0
-128 -129 0
127 128 129 0
-130 -131 0
-130 -132 0
-131 -132 0
130 131 132 0
-133 -134 0
-133 -135 0
-134 -135 0
133 134 135 0
-136 -137 0
-136 -138 0
-137 -138 0
136 137 138 0
-139 -140 0
-139 -141 0
-140 -141 0
139 140 141 0
-142 -143 0
-142 -144 0
-143 -144 0
142 143 144 0
-145 -146 0
-145 -147 0
-146 -147 0
145 146 147 0
-148 -149 0
-148 -150 0
-149 -150 0
148 149 150 0
-106 -1 0
-107 -2 0
-108 -3 0
-121 -1 0
-122 -2 0
-123 -3 0
-124 -1 0
-125 -2 0
-126 -3 0
-139 -1 0
-140 -2 0
-141 -3 0
-52 -4 0
-53 -5 0
-54 -6 0
-82 -4 0
-83 -5 0
-84 -6 0
-85 -4 0
-86 -5 0
-87 -6 0
-130 -4 0
-131 -5 0
-132 -6 0
-52 -7 0
-53 -8 0
-54 -9 0
-58 -7 0
-59 -8 0
-60 -9 0
-64 -7 0
-65 -8 0
-66 -9 0
-118 -7 0
-119 -8 0
-120 -9 0
-139 -7 0
-140 -8 0
-141 -9 0
-76 -10 0
-77 -11 0
-78 -12 0
-79 -10 0
-80 -11 0
-81 -12 0
-103 -10 0
-104 -11 0
-105 -12 0
-112 -10 0
-113 -11 0
-114 -12 0
-148 -10 0
-149 -11 0
-150 -12 0
-58 -13 0
-59 -14 0
-60 -15 0
-73 -13 0
-74 -14 0
-75 -15 0
-88 -13 0
-89 -14 0
-90 -15 0
-103 -13 0
-104 -14 0
-105 -15 0
-115 -13 0
-116 -14 0
-117 -15 0
-55 -16 0
-56 -17 0
-57 -18 0
-64 -16 0
-65 -17 0
-66 -18 0
-55 -19 0
-56 -20 0
-57 -21 0
-82 -19 0
-83 -20 0
-84 -21 0
-88 -19 0
-89 -20 0
-90 -21 0
-100 -19 0
-101 -20 0
-102 -21 0
-109 -19 0
-110 -20 0
-111 -21 0
-118 -19 0
-119 -20 0
-120 -21 0
-148 -19 0
-149 -20 0
-150 -21 0
-70 -22 0
-71 -23 0
-72 -24 0
-88 -22 0
-89 -23 0
-90 -24 0
-91 -22 0
-92 -23 0
-93 -24 0
-100 -22 0
-101 -23 0
-102 -24 0
-145 -22 0
-146 -23 0
-147 -24 0
-61 -25 0
-62 -26 0
-63 -27 0
-109 -25 0
-110 -26 0
-111 -27 0
-58 -28 0
-59 -29 0
-60 -30 0
-115 -28 0
-116 -29 0
-117 -30 0
-121 -28 0
-122 -29 0
-123 -30 0
-55 -31 0
-56 -32 0
-57 -33 0
-79 -31 0
-80 -32 0
-81 -33 0
-85 -31 0
-86 -32 0
-87 -33 0
-100 -31 0
-101 -32 0
-102 -33 0
-124 -31 0
-125 -32 0
-126 -33 0
-136 -31 0
-137 -32 0
-138 -33 0
-142 -31 0
-143 -32 0
-144 -33 0
-61 -34 0
-62 -35 0
-63 -36 0
-82 -34 0
-83 -35 0
-84 -36 0
-85 -34 0
-86 -35 0
-87 -36 0
-106 -34 0
-107 -35 0
-108 -36 0
-115 -34 0
-116 -35 0
-117 -36 0
-85 -37 0
-86 -38 0
-87 -39 0
-100 -37 0
-101 -38 0
-102 -39 0
-112 -37 0
-113 -38 0
-114 -39 0
-130 -37 0
-131 -38 0
-132 -39 0
-133 -37 0
-134 -38 0
-135 -39 0
-142 -37 0
-143 -38 0
-144 -39 0
-103 -40 0
-104 -41 0
-105 -42 0
-118 -40 0
-119 -41 0
-120 -42 0
-127 -40 0
-128 -41 0
-129 -42 0
-58 -43 0
-59 -44 0
-60 -45 0
-94 -43 0
-95 -44 0
-96 -45 0
-121 -43 0
-122 -44 0
-123 -45 0
-130 -43 0
-131 -44 0
-132 -45 0
-133 -43 0
-134 -44 0
-135 -45 0
-52 -46 0
-53 -47 0
-54 -48 0
-55 -46 0
-56 -47 0
-57 -48 0
-76 -46 0
-77 -47 0
-78 -48 0
-82 -46 0
-83 -47 0
-84 -48 0
-124 -46 0
-125 -47 0
-126 -48 0
-136 -46 0
-137 -47 0
-138 -48 0
-76 -49 0
-77 -50 0
-78 -51 0
-97 -49 0
-98 -50 0
-99 -51 0
-115 -49 0
-116 -50 0
-117 -51 0
-112 -52 0
-113 -53 0
-114 -54 0
-145 -52 0
-146 -53 0
-147 -54 0
-118 -55 0
-119 -56 0
-120 -57 0
-127 -55 0
-128 -56 0
-129 -57 0
-136 -55 0
-137 -56 0
-138 -57 0
-130 -58 0
-131 -59 0
-132 -60 0
-106 -61 0
-107 -62 0
-108 -63 0
-118 -61 0
-119 -62 0
-120 -63 0
-103 -64 0
-104 -65 0
-105 -66 0
-127 -64 0
-128 -65 0
-129 -66 0
-133 -64 0
-134 -65 0
-135 -66 0
-148 -67 0
-149 -68 0
-150 -69 0
-106 -70 0
-107 -71 0
-108 -72 0
-109 -70 0
-110 -71 0
-111 -72 0
-121 -70 0
-122 -71 0
-123 -72 0
-139 -73 0
-140 -74 0
-141 -75 0
-127 -76 0
-128 -77 0
-129 -78 0
-118 -79 0
-119 -80 0
-120 -81 0
-121 -79 0
-122 -80 0
-123 -81 0
-145 -79 0
-146 -80 0
-147 -81 0
-148 -79 0
-149 -80 0
-150 -81 0
-136 -82 0
-137 -83 0
-138 -84 0
-139 -82 0
-140 -83 0
-141 -84 0
-103 -85 0
-104 -86 0
-105 -87 0
-109 -85 0
-110 -86 0
-111 -87 0
-103 -88 0
-104 -89 0
-105 -90 0
-145 -91 0
-146 -92 0
-147 -93 0
-106 -94 0
-107 -95 0
-108 -96 0
-109 -94 0
-110 -95 0
-111 -96 0
-121 -94 0
-122 -95 0
-123 -96 0
-133 -94 0
-134 -95 0
-135 -96 0
-115 -97 0
-116 -98 0
-117 -99 0
-133 -97 0
-134 -98 0
-135 -99 0
-136 -97 0
-137 -98 0
-138 -99 0
-115 -100 0
-116 -101 0
-117 -102 0
-121 -100 0
-122 -101 0
-123 -102 0
-127 -100 0
-128 -101 0
-129 -102 0
-136 -100 0
-137 -101 0
-138 -102 0
